NAME: dj38
COMMENT: Local search tour for dj38 (8441.20278791693)
TYPE: TOUR
DIMENSION: 38
TOUR_SECTION: 1 10 14 21 29 32 30 26 25 23 20 22 24 35 37 38 33 34 36 31 27 28 19 18 17 16 12 11 9 8 13 15 6 7 5 3 4 2 -1
EOF